NAME: random-100-5105
TYPE: TSP
COMMENT: size=100 seed=5105
DIMENSION: 202
EDGE_WEIGHT_TYPE: EUC_2D
NODE_COORD_SECTION
+0 735 8
-0 735 8
+1 457 861
-1 840 335
+2 766 608
-2 21 128
+3 86 538
-3 651 327
+4 713 312
-4 21 633
+5 58 10
-5 563 882
+6 407 182
-6 952 504
+7 99 562
-7 576 253
+8 427 461
-8 271 740
+9 632 578
-9 622 550
+10 668 855
-10 482 565
+11 3 188
-11 12 703
+12 746 616
-12 41 679
+13 529 379
-13 542 500
+14 519 26
-14 923 892
+15 964 905
-15 800 204
+16 813 478
-16 959 279
+17 754 693
-17 558 238
+18 817 110
-18 337 80
+19 74 295
-19 736 888
+20 853 437
-20 638 47
+21 781 664
-21 599 579
+22 361 498
-22 810 654
+23 248 470
-23 961 684
+24 539 520
-24 12 480
+25 531 149
-25 953 170
+26 137 644
-26 473 989
+27 854 952
-27 526 715
+28 568 466
-28 392 484
+29 605 253
-29 384 5
+30 92 38
-30 665 82
+31 836 559
-31 676 722
+32 449 223
-32 294 109
+33 361 194
-33 592 792
+34 478 569
-34 396 153
+35 186 836
-35 657 853
+36 387 308
-36 419 994
+37 486 659
-37 964 108
+38 954 202
-38 707 251
+39 383 172
-39 94 177
+40 460 626
-40 776 911
+41 822 729
-41 581 545
+42 538 252
-42 887 283
+43 25 774
-43 406 295
+44 473 912
-44 356 807
+45 177 509
-45 97 463
+46 13 19
-46 637 845
+47 843 182
-47 85 86
+48 120 144
-48 499 797
+49 578 345
-49 721 90
+50 121 127
-50 657 396
+51 445 603
-51 334 443
+52 629 574
-52 297 757
+53 463 975
-53 771 664
+54 551 503
-54 363 866
+55 794 180
-55 320 676
+56 161 183
-56 794 548
+57 734 292
-57 820 479
+58 798 950
-58 822 495
+59 35 3
-59 948 76
+60 900 907
-60 33 431
+61 107 597
-61 280 92
+62 99 293
-62 679 402
+63 131 374
-63 392 741
+64 167 77
-64 346 427
+65 502 565
-65 91 101
+66 245 604
-66 793 70
+67 174 577
-67 865 586
+68 470 902
-68 369 182
+69 685 273
-69 818 70
+70 950 381
-70 757 392
+71 405 957
-71 228 121
+72 694 801
-72 429 710
+73 244 851
-73 711 589
+74 525 530
-74 234 601
+75 127 99
-75 351 679
+76 664 329
-76 624 256
+77 596 737
-77 151 770
+78 416 833
-78 436 494
+79 175 880
-79 571 493
+80 298 611
-80 481 444
+81 170 404
-81 323 391
+82 587 987
-82 158 835
+83 203 113
-83 27 587
+84 695 647
-84 186 923
+85 837 206
-85 194 137
+86 922 156
-86 903 277
+87 948 535
-87 785 698
+88 268 923
-88 878 641
+89 745 940
-89 590 379
+90 364 538
-90 132 61
+91 159 340
-91 868 301
+92 902 539
-92 991 893
+93 903 961
-93 550 819
+94 19 487
-94 989 321
+95 698 818
-95 563 944
+96 919 668
-96 490 986
+97 196 283
-97 906 373
+98 446 276
-98 455 108
+99 273 576
-99 477 923
+100 702 510
-100 637 168
PRECEDENCE_SECTION
+0 -0
+1 -1
+2 -2
+3 -3
+4 -4
+5 -5
+6 -6
+7 -7
+8 -8
+9 -9
+10 -10
+11 -11
+12 -12
+13 -13
+14 -14
+15 -15
+16 -16
+17 -17
+18 -18
+19 -19
+20 -20
+21 -21
+22 -22
+23 -23
+24 -24
+25 -25
+26 -26
+27 -27
+28 -28
+29 -29
+30 -30
+31 -31
+32 -32
+33 -33
+34 -34
+35 -35
+36 -36
+37 -37
+38 -38
+39 -39
+40 -40
+41 -41
+42 -42
+43 -43
+44 -44
+45 -45
+46 -46
+47 -47
+48 -48
+49 -49
+50 -50
+51 -51
+52 -52
+53 -53
+54 -54
+55 -55
+56 -56
+57 -57
+58 -58
+59 -59
+60 -60
+61 -61
+62 -62
+63 -63
+64 -64
+65 -65
+66 -66
+67 -67
+68 -68
+69 -69
+70 -70
+71 -71
+72 -72
+73 -73
+74 -74
+75 -75
+76 -76
+77 -77
+78 -78
+79 -79
+80 -80
+81 -81
+82 -82
+83 -83
+84 -84
+85 -85
+86 -86
+87 -87
+88 -88
+89 -89
+90 -90
+91 -91
+92 -92
+93 -93
+94 -94
+95 -95
+96 -96
+97 -97
+98 -98
+99 -99
+100 -100
EOF
